
;this file is automatically generated: Tue Feb 23 13:38:01 CST 2021

;declarations generated

(declare-fun oclExcludes ( Int Int) Bool)
(declare-fun type_ea89343c_0eff_47ac_af54_a5a80d5e4d8b_Class42 ( Int) Bool)
(declare-fun type_ea89343c_0eff_47ac_af54_a5a80d5e4d8b_Class41 ( Int) Bool)
(declare-fun type_ea89343c_0eff_47ac_af54_a5a80d5e4d8b_Class40 ( Int) Bool)
(declare-fun type_ea89343c_0eff_47ac_af54_a5a80d5e4d8b_Class35 ( Int) Bool)
(declare-fun type_ea89343c_0eff_47ac_af54_a5a80d5e4d8b_Class34 ( Int) Bool)
(declare-fun type_ea89343c_0eff_47ac_af54_a5a80d5e4d8b_Class33 ( Int) Bool)
(declare-fun type_ea89343c_0eff_47ac_af54_a5a80d5e4d8b_Class32 ( Int) Bool)
(declare-fun type_ea89343c_0eff_47ac_af54_a5a80d5e4d8b_Class39 ( Int) Bool)
(declare-fun type_ea89343c_0eff_47ac_af54_a5a80d5e4d8b_Class38 ( Int) Bool)
(declare-fun class16_Class16IntAttr3 ( Int) Int)
(declare-fun type_ea89343c_0eff_47ac_af54_a5a80d5e4d8b_Class37 ( Int) Bool)
(declare-fun type_ea89343c_0eff_47ac_af54_a5a80d5e4d8b_Class36 ( Int) Bool)
(declare-fun Cardinality ( Int) Int)
(declare-fun type_ea89343c_0eff_47ac_af54_a5a80d5e4d8b_Class45 ( Int) Bool)
(declare-fun type_ea89343c_0eff_47ac_af54_a5a80d5e4d8b_Class44 ( Int) Bool)
(declare-fun type_ea89343c_0eff_47ac_af54_a5a80d5e4d8b_Class43 ( Int) Bool)
(declare-fun type_ea89343c_0eff_47ac_af54_a5a80d5e4d8b_Class20 ( Int) Bool)
(declare-fun type_ea89343c_0eff_47ac_af54_a5a80d5e4d8b_Class13 ( Int) Bool)
(declare-fun type_ea89343c_0eff_47ac_af54_a5a80d5e4d8b_Class12 ( Int) Bool)
(declare-fun type_ea89343c_0eff_47ac_af54_a5a80d5e4d8b_Class11 ( Int) Bool)
(declare-fun type_ea89343c_0eff_47ac_af54_a5a80d5e4d8b_Class10 ( Int) Bool)
(declare-fun type_ea89343c_0eff_47ac_af54_a5a80d5e4d8b_Class17 ( Int) Bool)
(declare-fun type_ea89343c_0eff_47ac_af54_a5a80d5e4d8b_Class16 ( Int) Bool)
(declare-fun type_ea89343c_0eff_47ac_af54_a5a80d5e4d8b_Class15 ( Int) Bool)
(declare-fun type_ea89343c_0eff_47ac_af54_a5a80d5e4d8b_Class14 ( Int) Bool)
(declare-fun type_ea89343c_0eff_47ac_af54_a5a80d5e4d8b_Class19 ( Int) Bool)
(declare-fun type_ea89343c_0eff_47ac_af54_a5a80d5e4d8b_Class18 ( Int) Bool)
(declare-fun type_ea89343c_0eff_47ac_af54_a5a80d5e4d8b_Class31 ( Int) Bool)
(declare-fun type_ea89343c_0eff_47ac_af54_a5a80d5e4d8b_Class30 ( Int) Bool)
(declare-fun type_ea89343c_0eff_47ac_af54_a5a80d5e4d8b_Class24 ( Int) Bool)
(declare-fun type_ea89343c_0eff_47ac_af54_a5a80d5e4d8b_Class23 ( Int) Bool)
(declare-fun type_ea89343c_0eff_47ac_af54_a5a80d5e4d8b_Class22 ( Int) Bool)
(declare-fun type_ea89343c_0eff_47ac_af54_a5a80d5e4d8b_Class21 ( Int) Bool)
(declare-fun type_ea89343c_0eff_47ac_af54_a5a80d5e4d8b_Class28 ( Int) Bool)
(declare-fun type_ea89343c_0eff_47ac_af54_a5a80d5e4d8b_Class27 ( Int) Bool)
(declare-fun type_ea89343c_0eff_47ac_af54_a5a80d5e4d8b_Class26 ( Int) Bool)
(declare-fun type_ea89343c_0eff_47ac_af54_a5a80d5e4d8b_Class25 ( Int) Bool)
(declare-fun type_ea89343c_0eff_47ac_af54_a5a80d5e4d8b_Class29 ( Int) Bool)
(declare-fun obj_4acecc1c_9607_4548_a349_1496d5200290 ( Int) Int)
(declare-fun oclSelect ( Int Bool) Int)
(declare-fun Enum0 ( Int) Int)
(declare-fun Enum1 ( Int) Int)
(declare-fun Enum2 ( Int) Int)
(declare-fun container_ ( Int) Int)
(declare-fun oclIncludes ( Int Int) Bool)
(declare-fun ObjAt ( Int Int) Int)
(declare-fun type_ea89343c_0eff_47ac_af54_a5a80d5e4d8b_Class0 ( Int) Bool)
(declare-fun type_ea89343c_0eff_47ac_af54_a5a80d5e4d8b_Class1 ( Int) Bool)
(declare-fun type_ea89343c_0eff_47ac_af54_a5a80d5e4d8b_Class2 ( Int) Bool)
(declare-fun type_ea89343c_0eff_47ac_af54_a5a80d5e4d8b_Class3 ( Int) Bool)
(declare-fun type_ea89343c_0eff_47ac_af54_a5a80d5e4d8b_Class4 ( Int) Bool)
(declare-fun type_ea89343c_0eff_47ac_af54_a5a80d5e4d8b_Class5 ( Int) Bool)
(declare-fun type_ea89343c_0eff_47ac_af54_a5a80d5e4d8b_Class6 ( Int) Bool)
(declare-fun type_ea89343c_0eff_47ac_af54_a5a80d5e4d8b_Class7 ( Int) Bool)
(declare-fun type_ea89343c_0eff_47ac_af54_a5a80d5e4d8b_Class8 ( Int) Bool)
(declare-fun type_ea89343c_0eff_47ac_af54_a5a80d5e4d8b_Class9 ( Int) Bool)

;formula(s) generated
(assert (! (forall ((v Int)) (=> (and (and ( type_ea89343c_0eff_47ac_af54_a5a80d5e4d8b_Class16 v )  ( type_ea89343c_0eff_47ac_af54_a5a80d5e4d8b_Class15 v ) ) ( type_ea89343c_0eff_47ac_af54_a5a80d5e4d8b_Class2 v ) ) (> ( class16_Class16IntAttr3 ( obj_4acecc1c_9607_4548_a349_1496d5200290 v )  )  7))):named l0))
(assert (! (exists ((o Int)) (and (and (and ( type_ea89343c_0eff_47ac_af54_a5a80d5e4d8b_Class0 ( obj_4acecc1c_9607_4548_a349_1496d5200290 o )  )  ( type_ea89343c_0eff_47ac_af54_a5a80d5e4d8b_Class22 ( obj_4acecc1c_9607_4548_a349_1496d5200290 o )  ) ) ( type_ea89343c_0eff_47ac_af54_a5a80d5e4d8b_Class35 ( obj_4acecc1c_9607_4548_a349_1496d5200290 o )  ) ) ( type_ea89343c_0eff_47ac_af54_a5a80d5e4d8b_Class2 ( obj_4acecc1c_9607_4548_a349_1496d5200290 o )  ) )):named c0))
(assert (! (exists ((o Int)) ( type_ea89343c_0eff_47ac_af54_a5a80d5e4d8b_Class1 ( obj_4acecc1c_9607_4548_a349_1496d5200290 o )  ) ):named c1))
(assert (! (exists ((o Int)) (and (and (and (and ( type_ea89343c_0eff_47ac_af54_a5a80d5e4d8b_Class10 ( obj_4acecc1c_9607_4548_a349_1496d5200290 o )  )  ( type_ea89343c_0eff_47ac_af54_a5a80d5e4d8b_Class16 ( obj_4acecc1c_9607_4548_a349_1496d5200290 o )  ) ) ( type_ea89343c_0eff_47ac_af54_a5a80d5e4d8b_Class15 ( obj_4acecc1c_9607_4548_a349_1496d5200290 o )  ) ) ( type_ea89343c_0eff_47ac_af54_a5a80d5e4d8b_Class41 ( obj_4acecc1c_9607_4548_a349_1496d5200290 o )  ) ) ( type_ea89343c_0eff_47ac_af54_a5a80d5e4d8b_Class2 ( obj_4acecc1c_9607_4548_a349_1496d5200290 o )  ) )):named c2))
(assert (! (exists ((o Int)) ( type_ea89343c_0eff_47ac_af54_a5a80d5e4d8b_Class11 ( obj_4acecc1c_9607_4548_a349_1496d5200290 o )  ) ):named c3))
(assert (! (exists ((o Int)) (and (and (and (and ( type_ea89343c_0eff_47ac_af54_a5a80d5e4d8b_Class12 ( obj_4acecc1c_9607_4548_a349_1496d5200290 o )  )  ( type_ea89343c_0eff_47ac_af54_a5a80d5e4d8b_Class22 ( obj_4acecc1c_9607_4548_a349_1496d5200290 o )  ) ) ( type_ea89343c_0eff_47ac_af54_a5a80d5e4d8b_Class35 ( obj_4acecc1c_9607_4548_a349_1496d5200290 o )  ) ) ( type_ea89343c_0eff_47ac_af54_a5a80d5e4d8b_Class0 ( obj_4acecc1c_9607_4548_a349_1496d5200290 o )  ) ) ( type_ea89343c_0eff_47ac_af54_a5a80d5e4d8b_Class2 ( obj_4acecc1c_9607_4548_a349_1496d5200290 o )  ) )):named c4))
(assert (! (exists ((o Int)) (and (and (and ( type_ea89343c_0eff_47ac_af54_a5a80d5e4d8b_Class13 ( obj_4acecc1c_9607_4548_a349_1496d5200290 o )  )  ( type_ea89343c_0eff_47ac_af54_a5a80d5e4d8b_Class16 ( obj_4acecc1c_9607_4548_a349_1496d5200290 o )  ) ) ( type_ea89343c_0eff_47ac_af54_a5a80d5e4d8b_Class15 ( obj_4acecc1c_9607_4548_a349_1496d5200290 o )  ) ) ( type_ea89343c_0eff_47ac_af54_a5a80d5e4d8b_Class2 ( obj_4acecc1c_9607_4548_a349_1496d5200290 o )  ) )):named c5))
(assert (! (exists ((o Int)) (and (and (and (and (and (and (and ( type_ea89343c_0eff_47ac_af54_a5a80d5e4d8b_Class14 ( obj_4acecc1c_9607_4548_a349_1496d5200290 o )  )  ( type_ea89343c_0eff_47ac_af54_a5a80d5e4d8b_Class33 ( obj_4acecc1c_9607_4548_a349_1496d5200290 o )  ) ) ( type_ea89343c_0eff_47ac_af54_a5a80d5e4d8b_Class13 ( obj_4acecc1c_9607_4548_a349_1496d5200290 o )  ) ) ( type_ea89343c_0eff_47ac_af54_a5a80d5e4d8b_Class16 ( obj_4acecc1c_9607_4548_a349_1496d5200290 o )  ) ) ( type_ea89343c_0eff_47ac_af54_a5a80d5e4d8b_Class15 ( obj_4acecc1c_9607_4548_a349_1496d5200290 o )  ) ) ( type_ea89343c_0eff_47ac_af54_a5a80d5e4d8b_Class4 ( obj_4acecc1c_9607_4548_a349_1496d5200290 o )  ) ) ( type_ea89343c_0eff_47ac_af54_a5a80d5e4d8b_Class41 ( obj_4acecc1c_9607_4548_a349_1496d5200290 o )  ) ) ( type_ea89343c_0eff_47ac_af54_a5a80d5e4d8b_Class2 ( obj_4acecc1c_9607_4548_a349_1496d5200290 o )  ) )):named c6))
(assert (! (exists ((o Int)) (and ( type_ea89343c_0eff_47ac_af54_a5a80d5e4d8b_Class15 ( obj_4acecc1c_9607_4548_a349_1496d5200290 o )  )  ( type_ea89343c_0eff_47ac_af54_a5a80d5e4d8b_Class2 ( obj_4acecc1c_9607_4548_a349_1496d5200290 o )  ) )):named c7))
(assert (! (exists ((o Int)) (and (and ( type_ea89343c_0eff_47ac_af54_a5a80d5e4d8b_Class16 ( obj_4acecc1c_9607_4548_a349_1496d5200290 o )  )  ( type_ea89343c_0eff_47ac_af54_a5a80d5e4d8b_Class15 ( obj_4acecc1c_9607_4548_a349_1496d5200290 o )  ) ) ( type_ea89343c_0eff_47ac_af54_a5a80d5e4d8b_Class2 ( obj_4acecc1c_9607_4548_a349_1496d5200290 o )  ) )):named c8))
(assert (! (exists ((o Int)) (and (and (and (and ( type_ea89343c_0eff_47ac_af54_a5a80d5e4d8b_Class17 ( obj_4acecc1c_9607_4548_a349_1496d5200290 o )  )  ( type_ea89343c_0eff_47ac_af54_a5a80d5e4d8b_Class24 ( obj_4acecc1c_9607_4548_a349_1496d5200290 o )  ) ) ( type_ea89343c_0eff_47ac_af54_a5a80d5e4d8b_Class26 ( obj_4acecc1c_9607_4548_a349_1496d5200290 o )  ) ) ( type_ea89343c_0eff_47ac_af54_a5a80d5e4d8b_Class32 ( obj_4acecc1c_9607_4548_a349_1496d5200290 o )  ) ) ( type_ea89343c_0eff_47ac_af54_a5a80d5e4d8b_Class2 ( obj_4acecc1c_9607_4548_a349_1496d5200290 o )  ) )):named c9))
(assert (! (exists ((o Int)) ( type_ea89343c_0eff_47ac_af54_a5a80d5e4d8b_Class18 ( obj_4acecc1c_9607_4548_a349_1496d5200290 o )  ) ):named c10))
(assert (! (exists ((o Int)) ( type_ea89343c_0eff_47ac_af54_a5a80d5e4d8b_Class19 ( obj_4acecc1c_9607_4548_a349_1496d5200290 o )  ) ):named c11))
(assert (! (exists ((o Int)) ( type_ea89343c_0eff_47ac_af54_a5a80d5e4d8b_Class2 ( obj_4acecc1c_9607_4548_a349_1496d5200290 o )  ) ):named c12))
(assert (! (exists ((o Int)) (and (and ( type_ea89343c_0eff_47ac_af54_a5a80d5e4d8b_Class20 ( obj_4acecc1c_9607_4548_a349_1496d5200290 o )  )  ( type_ea89343c_0eff_47ac_af54_a5a80d5e4d8b_Class21 ( obj_4acecc1c_9607_4548_a349_1496d5200290 o )  ) ) ( type_ea89343c_0eff_47ac_af54_a5a80d5e4d8b_Class2 ( obj_4acecc1c_9607_4548_a349_1496d5200290 o )  ) )):named c13))
(assert (! (exists ((o Int)) (and ( type_ea89343c_0eff_47ac_af54_a5a80d5e4d8b_Class21 ( obj_4acecc1c_9607_4548_a349_1496d5200290 o )  )  ( type_ea89343c_0eff_47ac_af54_a5a80d5e4d8b_Class2 ( obj_4acecc1c_9607_4548_a349_1496d5200290 o )  ) )):named c14))
(assert (! (exists ((o Int)) (and (and ( type_ea89343c_0eff_47ac_af54_a5a80d5e4d8b_Class22 ( obj_4acecc1c_9607_4548_a349_1496d5200290 o )  )  ( type_ea89343c_0eff_47ac_af54_a5a80d5e4d8b_Class35 ( obj_4acecc1c_9607_4548_a349_1496d5200290 o )  ) ) ( type_ea89343c_0eff_47ac_af54_a5a80d5e4d8b_Class2 ( obj_4acecc1c_9607_4548_a349_1496d5200290 o )  ) )):named c15))
(assert (! (exists ((o Int)) (and (and (and (and (and (and ( type_ea89343c_0eff_47ac_af54_a5a80d5e4d8b_Class23 ( obj_4acecc1c_9607_4548_a349_1496d5200290 o )  )  ( type_ea89343c_0eff_47ac_af54_a5a80d5e4d8b_Class12 ( obj_4acecc1c_9607_4548_a349_1496d5200290 o )  ) ) ( type_ea89343c_0eff_47ac_af54_a5a80d5e4d8b_Class22 ( obj_4acecc1c_9607_4548_a349_1496d5200290 o )  ) ) ( type_ea89343c_0eff_47ac_af54_a5a80d5e4d8b_Class25 ( obj_4acecc1c_9607_4548_a349_1496d5200290 o )  ) ) ( type_ea89343c_0eff_47ac_af54_a5a80d5e4d8b_Class35 ( obj_4acecc1c_9607_4548_a349_1496d5200290 o )  ) ) ( type_ea89343c_0eff_47ac_af54_a5a80d5e4d8b_Class0 ( obj_4acecc1c_9607_4548_a349_1496d5200290 o )  ) ) ( type_ea89343c_0eff_47ac_af54_a5a80d5e4d8b_Class2 ( obj_4acecc1c_9607_4548_a349_1496d5200290 o )  ) )):named c16))
(assert (! (exists ((o Int)) (and (and (and ( type_ea89343c_0eff_47ac_af54_a5a80d5e4d8b_Class24 ( obj_4acecc1c_9607_4548_a349_1496d5200290 o )  )  ( type_ea89343c_0eff_47ac_af54_a5a80d5e4d8b_Class26 ( obj_4acecc1c_9607_4548_a349_1496d5200290 o )  ) ) ( type_ea89343c_0eff_47ac_af54_a5a80d5e4d8b_Class32 ( obj_4acecc1c_9607_4548_a349_1496d5200290 o )  ) ) ( type_ea89343c_0eff_47ac_af54_a5a80d5e4d8b_Class2 ( obj_4acecc1c_9607_4548_a349_1496d5200290 o )  ) )):named c17))
(assert (! (exists ((o Int)) (and (and (and (and (and ( type_ea89343c_0eff_47ac_af54_a5a80d5e4d8b_Class25 ( obj_4acecc1c_9607_4548_a349_1496d5200290 o )  )  ( type_ea89343c_0eff_47ac_af54_a5a80d5e4d8b_Class12 ( obj_4acecc1c_9607_4548_a349_1496d5200290 o )  ) ) ( type_ea89343c_0eff_47ac_af54_a5a80d5e4d8b_Class22 ( obj_4acecc1c_9607_4548_a349_1496d5200290 o )  ) ) ( type_ea89343c_0eff_47ac_af54_a5a80d5e4d8b_Class35 ( obj_4acecc1c_9607_4548_a349_1496d5200290 o )  ) ) ( type_ea89343c_0eff_47ac_af54_a5a80d5e4d8b_Class0 ( obj_4acecc1c_9607_4548_a349_1496d5200290 o )  ) ) ( type_ea89343c_0eff_47ac_af54_a5a80d5e4d8b_Class2 ( obj_4acecc1c_9607_4548_a349_1496d5200290 o )  ) )):named c18))
(assert (! (exists ((o Int)) (and (and ( type_ea89343c_0eff_47ac_af54_a5a80d5e4d8b_Class26 ( obj_4acecc1c_9607_4548_a349_1496d5200290 o )  )  ( type_ea89343c_0eff_47ac_af54_a5a80d5e4d8b_Class32 ( obj_4acecc1c_9607_4548_a349_1496d5200290 o )  ) ) ( type_ea89343c_0eff_47ac_af54_a5a80d5e4d8b_Class2 ( obj_4acecc1c_9607_4548_a349_1496d5200290 o )  ) )):named c19))
(assert (! (exists ((o Int)) (and ( type_ea89343c_0eff_47ac_af54_a5a80d5e4d8b_Class27 ( obj_4acecc1c_9607_4548_a349_1496d5200290 o )  )  ( type_ea89343c_0eff_47ac_af54_a5a80d5e4d8b_Class2 ( obj_4acecc1c_9607_4548_a349_1496d5200290 o )  ) )):named c20))
(assert (! (exists ((o Int)) ( type_ea89343c_0eff_47ac_af54_a5a80d5e4d8b_Class28 ( obj_4acecc1c_9607_4548_a349_1496d5200290 o )  ) ):named c21))
(assert (! (exists ((o Int)) ( type_ea89343c_0eff_47ac_af54_a5a80d5e4d8b_Class29 ( obj_4acecc1c_9607_4548_a349_1496d5200290 o )  ) ):named c22))
(assert (! (exists ((o Int)) ( type_ea89343c_0eff_47ac_af54_a5a80d5e4d8b_Class3 ( obj_4acecc1c_9607_4548_a349_1496d5200290 o )  ) ):named c23))
(assert (! (exists ((o Int)) (and ( type_ea89343c_0eff_47ac_af54_a5a80d5e4d8b_Class30 ( obj_4acecc1c_9607_4548_a349_1496d5200290 o )  )  ( type_ea89343c_0eff_47ac_af54_a5a80d5e4d8b_Class2 ( obj_4acecc1c_9607_4548_a349_1496d5200290 o )  ) )):named c24))
(assert (! (exists ((o Int)) (and (and (and (and ( type_ea89343c_0eff_47ac_af54_a5a80d5e4d8b_Class31 ( obj_4acecc1c_9607_4548_a349_1496d5200290 o )  )  ( type_ea89343c_0eff_47ac_af54_a5a80d5e4d8b_Class16 ( obj_4acecc1c_9607_4548_a349_1496d5200290 o )  ) ) ( type_ea89343c_0eff_47ac_af54_a5a80d5e4d8b_Class15 ( obj_4acecc1c_9607_4548_a349_1496d5200290 o )  ) ) ( type_ea89343c_0eff_47ac_af54_a5a80d5e4d8b_Class41 ( obj_4acecc1c_9607_4548_a349_1496d5200290 o )  ) ) ( type_ea89343c_0eff_47ac_af54_a5a80d5e4d8b_Class2 ( obj_4acecc1c_9607_4548_a349_1496d5200290 o )  ) )):named c25))
(assert (! (exists ((o Int)) (and ( type_ea89343c_0eff_47ac_af54_a5a80d5e4d8b_Class32 ( obj_4acecc1c_9607_4548_a349_1496d5200290 o )  )  ( type_ea89343c_0eff_47ac_af54_a5a80d5e4d8b_Class2 ( obj_4acecc1c_9607_4548_a349_1496d5200290 o )  ) )):named c26))
(assert (! (exists ((o Int)) (and (and (and (and (and ( type_ea89343c_0eff_47ac_af54_a5a80d5e4d8b_Class33 ( obj_4acecc1c_9607_4548_a349_1496d5200290 o )  )  ( type_ea89343c_0eff_47ac_af54_a5a80d5e4d8b_Class13 ( obj_4acecc1c_9607_4548_a349_1496d5200290 o )  ) ) ( type_ea89343c_0eff_47ac_af54_a5a80d5e4d8b_Class16 ( obj_4acecc1c_9607_4548_a349_1496d5200290 o )  ) ) ( type_ea89343c_0eff_47ac_af54_a5a80d5e4d8b_Class15 ( obj_4acecc1c_9607_4548_a349_1496d5200290 o )  ) ) ( type_ea89343c_0eff_47ac_af54_a5a80d5e4d8b_Class41 ( obj_4acecc1c_9607_4548_a349_1496d5200290 o )  ) ) ( type_ea89343c_0eff_47ac_af54_a5a80d5e4d8b_Class2 ( obj_4acecc1c_9607_4548_a349_1496d5200290 o )  ) )):named c27))
(assert (! (exists ((o Int)) ( type_ea89343c_0eff_47ac_af54_a5a80d5e4d8b_Class34 ( obj_4acecc1c_9607_4548_a349_1496d5200290 o )  ) ):named c28))
(assert (! (exists ((o Int)) (and ( type_ea89343c_0eff_47ac_af54_a5a80d5e4d8b_Class35 ( obj_4acecc1c_9607_4548_a349_1496d5200290 o )  )  ( type_ea89343c_0eff_47ac_af54_a5a80d5e4d8b_Class2 ( obj_4acecc1c_9607_4548_a349_1496d5200290 o )  ) )):named c29))
(assert (! (exists ((o Int)) ( type_ea89343c_0eff_47ac_af54_a5a80d5e4d8b_Class36 ( obj_4acecc1c_9607_4548_a349_1496d5200290 o )  ) ):named c30))
(assert (! (exists ((o Int)) ( type_ea89343c_0eff_47ac_af54_a5a80d5e4d8b_Class37 ( obj_4acecc1c_9607_4548_a349_1496d5200290 o )  ) ):named c31))
(assert (! (exists ((o Int)) (and ( type_ea89343c_0eff_47ac_af54_a5a80d5e4d8b_Class38 ( obj_4acecc1c_9607_4548_a349_1496d5200290 o )  )  ( type_ea89343c_0eff_47ac_af54_a5a80d5e4d8b_Class2 ( obj_4acecc1c_9607_4548_a349_1496d5200290 o )  ) )):named c32))
(assert (! (exists ((o Int)) ( type_ea89343c_0eff_47ac_af54_a5a80d5e4d8b_Class39 ( obj_4acecc1c_9607_4548_a349_1496d5200290 o )  ) ):named c33))
(assert (! (exists ((o Int)) (and (and (and (and (and (and ( type_ea89343c_0eff_47ac_af54_a5a80d5e4d8b_Class4 ( obj_4acecc1c_9607_4548_a349_1496d5200290 o )  )  ( type_ea89343c_0eff_47ac_af54_a5a80d5e4d8b_Class33 ( obj_4acecc1c_9607_4548_a349_1496d5200290 o )  ) ) ( type_ea89343c_0eff_47ac_af54_a5a80d5e4d8b_Class13 ( obj_4acecc1c_9607_4548_a349_1496d5200290 o )  ) ) ( type_ea89343c_0eff_47ac_af54_a5a80d5e4d8b_Class16 ( obj_4acecc1c_9607_4548_a349_1496d5200290 o )  ) ) ( type_ea89343c_0eff_47ac_af54_a5a80d5e4d8b_Class15 ( obj_4acecc1c_9607_4548_a349_1496d5200290 o )  ) ) ( type_ea89343c_0eff_47ac_af54_a5a80d5e4d8b_Class41 ( obj_4acecc1c_9607_4548_a349_1496d5200290 o )  ) ) ( type_ea89343c_0eff_47ac_af54_a5a80d5e4d8b_Class2 ( obj_4acecc1c_9607_4548_a349_1496d5200290 o )  ) )):named c34))
(assert (! (exists ((o Int)) (and (and (and ( type_ea89343c_0eff_47ac_af54_a5a80d5e4d8b_Class40 ( obj_4acecc1c_9607_4548_a349_1496d5200290 o )  )  ( type_ea89343c_0eff_47ac_af54_a5a80d5e4d8b_Class21 ( obj_4acecc1c_9607_4548_a349_1496d5200290 o )  ) ) ( type_ea89343c_0eff_47ac_af54_a5a80d5e4d8b_Class2 ( obj_4acecc1c_9607_4548_a349_1496d5200290 o )  ) ) ( type_ea89343c_0eff_47ac_af54_a5a80d5e4d8b_Class20 ( obj_4acecc1c_9607_4548_a349_1496d5200290 o )  ) )):named c35))
(assert (! (exists ((o Int)) (and (and (and ( type_ea89343c_0eff_47ac_af54_a5a80d5e4d8b_Class41 ( obj_4acecc1c_9607_4548_a349_1496d5200290 o )  )  ( type_ea89343c_0eff_47ac_af54_a5a80d5e4d8b_Class16 ( obj_4acecc1c_9607_4548_a349_1496d5200290 o )  ) ) ( type_ea89343c_0eff_47ac_af54_a5a80d5e4d8b_Class15 ( obj_4acecc1c_9607_4548_a349_1496d5200290 o )  ) ) ( type_ea89343c_0eff_47ac_af54_a5a80d5e4d8b_Class2 ( obj_4acecc1c_9607_4548_a349_1496d5200290 o )  ) )):named c36))
(assert (! (exists ((o Int)) (and (and (and ( type_ea89343c_0eff_47ac_af54_a5a80d5e4d8b_Class42 ( obj_4acecc1c_9607_4548_a349_1496d5200290 o )  )  ( type_ea89343c_0eff_47ac_af54_a5a80d5e4d8b_Class22 ( obj_4acecc1c_9607_4548_a349_1496d5200290 o )  ) ) ( type_ea89343c_0eff_47ac_af54_a5a80d5e4d8b_Class35 ( obj_4acecc1c_9607_4548_a349_1496d5200290 o )  ) ) ( type_ea89343c_0eff_47ac_af54_a5a80d5e4d8b_Class2 ( obj_4acecc1c_9607_4548_a349_1496d5200290 o )  ) )):named c37))
(assert (! (exists ((o Int)) ( type_ea89343c_0eff_47ac_af54_a5a80d5e4d8b_Class43 ( obj_4acecc1c_9607_4548_a349_1496d5200290 o )  ) ):named c38))
(assert (! (exists ((o Int)) (and (and (and (and (and (and ( type_ea89343c_0eff_47ac_af54_a5a80d5e4d8b_Class44 ( obj_4acecc1c_9607_4548_a349_1496d5200290 o )  )  ( type_ea89343c_0eff_47ac_af54_a5a80d5e4d8b_Class33 ( obj_4acecc1c_9607_4548_a349_1496d5200290 o )  ) ) ( type_ea89343c_0eff_47ac_af54_a5a80d5e4d8b_Class13 ( obj_4acecc1c_9607_4548_a349_1496d5200290 o )  ) ) ( type_ea89343c_0eff_47ac_af54_a5a80d5e4d8b_Class16 ( obj_4acecc1c_9607_4548_a349_1496d5200290 o )  ) ) ( type_ea89343c_0eff_47ac_af54_a5a80d5e4d8b_Class15 ( obj_4acecc1c_9607_4548_a349_1496d5200290 o )  ) ) ( type_ea89343c_0eff_47ac_af54_a5a80d5e4d8b_Class41 ( obj_4acecc1c_9607_4548_a349_1496d5200290 o )  ) ) ( type_ea89343c_0eff_47ac_af54_a5a80d5e4d8b_Class2 ( obj_4acecc1c_9607_4548_a349_1496d5200290 o )  ) )):named c39))
(assert (! (exists ((o Int)) ( type_ea89343c_0eff_47ac_af54_a5a80d5e4d8b_Class45 ( obj_4acecc1c_9607_4548_a349_1496d5200290 o )  ) ):named c40))
(assert (! (exists ((o Int)) ( type_ea89343c_0eff_47ac_af54_a5a80d5e4d8b_Class5 ( obj_4acecc1c_9607_4548_a349_1496d5200290 o )  ) ):named c41))
(assert (! (exists ((o Int)) (and (and (and (and ( type_ea89343c_0eff_47ac_af54_a5a80d5e4d8b_Class6 ( obj_4acecc1c_9607_4548_a349_1496d5200290 o )  )  ( type_ea89343c_0eff_47ac_af54_a5a80d5e4d8b_Class22 ( obj_4acecc1c_9607_4548_a349_1496d5200290 o )  ) ) ( type_ea89343c_0eff_47ac_af54_a5a80d5e4d8b_Class35 ( obj_4acecc1c_9607_4548_a349_1496d5200290 o )  ) ) ( type_ea89343c_0eff_47ac_af54_a5a80d5e4d8b_Class2 ( obj_4acecc1c_9607_4548_a349_1496d5200290 o )  ) ) ( type_ea89343c_0eff_47ac_af54_a5a80d5e4d8b_Class42 ( obj_4acecc1c_9607_4548_a349_1496d5200290 o )  ) )):named c42))
(assert (! (exists ((o Int)) ( type_ea89343c_0eff_47ac_af54_a5a80d5e4d8b_Class7 ( obj_4acecc1c_9607_4548_a349_1496d5200290 o )  ) ):named c43))
(assert (! (exists ((o Int)) (and (and (and (and (and ( type_ea89343c_0eff_47ac_af54_a5a80d5e4d8b_Class8 ( obj_4acecc1c_9607_4548_a349_1496d5200290 o )  )  ( type_ea89343c_0eff_47ac_af54_a5a80d5e4d8b_Class16 ( obj_4acecc1c_9607_4548_a349_1496d5200290 o )  ) ) ( type_ea89343c_0eff_47ac_af54_a5a80d5e4d8b_Class15 ( obj_4acecc1c_9607_4548_a349_1496d5200290 o )  ) ) ( type_ea89343c_0eff_47ac_af54_a5a80d5e4d8b_Class41 ( obj_4acecc1c_9607_4548_a349_1496d5200290 o )  ) ) ( type_ea89343c_0eff_47ac_af54_a5a80d5e4d8b_Class10 ( obj_4acecc1c_9607_4548_a349_1496d5200290 o )  ) ) ( type_ea89343c_0eff_47ac_af54_a5a80d5e4d8b_Class2 ( obj_4acecc1c_9607_4548_a349_1496d5200290 o )  ) )):named c44))
(assert (! (exists ((o Int)) (and (and (and (and (and (and (and ( type_ea89343c_0eff_47ac_af54_a5a80d5e4d8b_Class9 ( obj_4acecc1c_9607_4548_a349_1496d5200290 o )  )  ( type_ea89343c_0eff_47ac_af54_a5a80d5e4d8b_Class22 ( obj_4acecc1c_9607_4548_a349_1496d5200290 o )  ) ) ( type_ea89343c_0eff_47ac_af54_a5a80d5e4d8b_Class35 ( obj_4acecc1c_9607_4548_a349_1496d5200290 o )  ) ) ( type_ea89343c_0eff_47ac_af54_a5a80d5e4d8b_Class16 ( obj_4acecc1c_9607_4548_a349_1496d5200290 o )  ) ) ( type_ea89343c_0eff_47ac_af54_a5a80d5e4d8b_Class15 ( obj_4acecc1c_9607_4548_a349_1496d5200290 o )  ) ) ( type_ea89343c_0eff_47ac_af54_a5a80d5e4d8b_Class0 ( obj_4acecc1c_9607_4548_a349_1496d5200290 o )  ) ) ( type_ea89343c_0eff_47ac_af54_a5a80d5e4d8b_Class41 ( obj_4acecc1c_9607_4548_a349_1496d5200290 o )  ) ) ( type_ea89343c_0eff_47ac_af54_a5a80d5e4d8b_Class2 ( obj_4acecc1c_9607_4548_a349_1496d5200290 o )  ) )):named c45))

 ;end of formula 